\ENCODING=ISO-8859-1
\Problem name: IloCplex

Maximize
 obj: 485 vnp1 - 80 (π,ρ)0↑e1 - 68 (π,ρ)1↑e1
      - 84 (π,ρ)2↑e1 - 110 (π,ρ)3↑e1
      - 96 (π,ρ)4↑e1 - 58 (π,ρ)5↑e2
      - 58 (π,ρ)6↑e2 - 50 (π,ρ)7↑e2
      - 50 (π,ρ)8↑e2 - 50 (π,ρ)9↑e2
      - 39 (π,ρ)10↑e2 - 39 (π,ρ)11↑e2
      - 39 (π,ρ)12↑e2 - 55 (π,ρ)13↑e2
      - 55 (π,ρ)14↑e2 - 56 (π,ρ)15↑e2 + 856 vnp2
      - 76 (π,ρ)16↑e5 - 156 (π,ρ)17↑e5 + 682 vnp3
      - 30 (π,ρ)18↑e10 - 18 (π,ρ)19↑e10
      - 25 (π,ρ)20↑e10 - 43 (π,ρ)21↑e10
      - 18 (π,ρ)22↑e10 + 1261 vnp4 - 11 (π,ρ)23↑e11
      - 150 (π,ρ)24↑e12 - 205 (π,ρ)25↑e12
      - 120 (π,ρ)26↑e12 - 200 (π,ρ)27↑e12
Subject To
 _EmbdConstr_vnp1e1#0:   vnp1 - (π,ρ)0↑e1 - (π,ρ)1↑e1
                         - (π,ρ)2↑e1 - (π,ρ)3↑e1
                         - (π,ρ)4↑e1  = 0
 _EmbdConstr_vnp1e2#1:   vnp1 - (π,ρ)5↑e2 - (π,ρ)6↑e2
                         - (π,ρ)7↑e2 - (π,ρ)8↑e2
                         - (π,ρ)9↑e2 - (π,ρ)10↑e2
                         - (π,ρ)11↑e2 - (π,ρ)12↑e2
                         - (π,ρ)13↑e2 - (π,ρ)14↑e2
                         - (π,ρ)15↑e2  = 0
 _EmbdConstr_vnp1e3#2:   vnp1  = 0
 _EmbdConstr_vnp2e4#3:   vnp2  = 0
 _EmbdConstr_vnp2e5#4:   vnp2 - (π,ρ)16↑e5 - (π,ρ)17↑e5
                          = 0
 _EmbdConstr_vnp2e6#5:   vnp2  = 0
 _EmbdConstr_vnp3e7#6:   vnp3  = 0
 _EmbdConstr_vnp3e8#7:   vnp3  = 0
 _EmbdConstr_vnp3e9#8:   vnp3  = 0
 _EmbdConstr_vnp3e10#9:  vnp3 - (π,ρ)18↑e10 - (π,ρ)19↑e10
                         - (π,ρ)20↑e10 - (π,ρ)21↑e10
                         - (π,ρ)22↑e10  = 0
 _EmbdConstr_vnp4e11#10: vnp4 - (π,ρ)23↑e11  = 0
 _EmbdConstr_vnp4e12#11: vnp4 - (π,ρ)24↑e12 - (π,ρ)25↑e12
                         - (π,ρ)26↑e12 - (π,ρ)27↑e12  = 0
 _EmbdConstr_vnp4e13#12: vnp4  = 0
 _EmbdConstr_vnp4e14#13: vnp4  = 0
 _EmbdConstr_vnp4e15#14: vnp4  = 0
 BwCapConstr_slink1#15:  (π,ρ)23↑e11 <= 17
 BwCapConstr_slink2#16:  <= 16
 BwCapConstr_slink3#17:  <= 20
 BwCapConstr_slink6#18:  <= 20
 BwCapConstr_slink9#19:  2 (π,ρ)0↑e1 + (π,ρ)12↑e2
                         + (π,ρ)15↑e2 <= 19
 BwCapConstr_slink10#20: (π,ρ)22↑e10 <= 20
 BwCapConstr_slink11#21: (π,ρ)22↑e10 <= 20
 BwCapConstr_slink12#22: 2 (π,ρ)4↑e1 <= 19
 BwCapConstr_slink13#23: 2 (π,ρ)0↑e1 + 2 (π,ρ)4↑e1
                         + 100000 (π,ρ)5↑e2
                         + 100000 (π,ρ)6↑e2 + (π,ρ)15↑e2
                         <= 20
 BwCapConstr_slink15#24: 10 (π,ρ)16↑e5 + 10 (π,ρ)17↑e5
                         <= 20
 BwCapConstr_slink16#25: (π,ρ)7↑e2 + (π,ρ)8↑e2
                         + (π,ρ)9↑e2 + (π,ρ)10↑e2
                         + (π,ρ)11↑e2 + (π,ρ)12↑e2 <= 9
 BwCapConstr_slink18#26: 5 (π,ρ)17↑e5 <= 16
 BwCapConstr_slink20#27: 2 (π,ρ)1↑e1 + 2 (π,ρ)2↑e1
                         + 2 (π,ρ)3↑e1 + (π,ρ)5↑e2
                         + (π,ρ)6↑e2 + (π,ρ)13↑e2
                         + (π,ρ)14↑e2 + 100000 (π,ρ)15↑e2
                         <= 12
 BwCapConstr_slink21#28: 100000 (π,ρ)1↑e1 <= 20
 BwCapConstr_slink22#29: 2 (π,ρ)2↑e1 + 2 (π,ρ)3↑e1
                         + (π,ρ)5↑e2 + (π,ρ)6↑e2 <= 20
 BwCapConstr_slink23#30: 2 (π,ρ)1↑e1 + 2 (π,ρ)3↑e1
                         + 2 (π,ρ)4↑e1 + (π,ρ)11↑e2
                         + 100001 (π,ρ)13↑e2 + (π,ρ)14↑e2
                         <= 20
 BwCapConstr_slink24#31: 100000 (π,ρ)14↑e2
                         + 100000 (π,ρ)18↑e10 <= 20
 BwCapConstr_slink25#32: 2 (π,ρ)0↑e1 + 2 (π,ρ)2↑e1
                         + (π,ρ)5↑e2 + (π,ρ)6↑e2
                         + (π,ρ)15↑e2 + (π,ρ)18↑e10
                         + (π,ρ)20↑e10 <= 17
 BwCapConstr_slink26#33: 2 (π,ρ)3↑e1 + (π,ρ)19↑e10
                         + (π,ρ)21↑e10 <= 16
 BwCapConstr_slink27#34: 2 (π,ρ)3↑e1 + (π,ρ)20↑e10
                         + 5 (π,ρ)26↑e12 <= 20
 BwCapConstr_slink28#35: 2 (π,ρ)1↑e1 + 2 (π,ρ)4↑e1
                         + (π,ρ)20↑e10 + 5 (π,ρ)24↑e12
                         + 5 (π,ρ)26↑e12 + 5 (π,ρ)27↑e12
                         <= 20
 BwCapConstr_slink29#36: 100000 (π,ρ)4↑e1 + (π,ρ)13↑e2
                         + (π,ρ)14↑e2
                         + 100000 (π,ρ)24↑e12
                         + 100000 (π,ρ)25↑e12
                         + 5 (π,ρ)26↑e12 + 5 (π,ρ)27↑e12
                         <= 20
 BwCapConstr_slink30#37: 5 (π,ρ)25↑e12 <= 20
 BwCapConstr_slink31#38: (π,ρ)7↑e2 + (π,ρ)8↑e2
                         + (π,ρ)9↑e2 + 5 (π,ρ)25↑e12
                         <= 11
 BwCapConstr_slink32#39: 5 (π,ρ)17↑e5 <= 17
 BwCapConstr_slink33#40: (π,ρ)7↑e2 + (π,ρ)8↑e2
                         + (π,ρ)9↑e2 + 5 (π,ρ)16↑e5 <= 14
 BwCapConstr_slink34#41: (π,ρ)10↑e2 + (π,ρ)11↑e2
                         + (π,ρ)12↑e2 + 100000 (π,ρ)16↑e5
                         + 100000 (π,ρ)17↑e5 <= 15
 BwCapConstr_slink35#42: 5 (π,ρ)16↑e5 + 5 (π,ρ)17↑e5
                         <= 20
 BwCapConstr_slink36#43: (π,ρ)10↑e2 + (π,ρ)11↑e2
                         + (π,ρ)12↑e2 <= 15
 BwCapConstr_slink37#44: 5 (π,ρ)24↑e12 <= 20
 BwCapConstr_slink38#45: (π,ρ)5↑e2 + (π,ρ)6↑e2
                         + (π,ρ)15↑e2 + (π,ρ)18↑e10
                         + 5 (π,ρ)27↑e12 <= 20
 BwCapConstr_slink39#46: (π,ρ)7↑e2 + (π,ρ)8↑e2
                         + (π,ρ)9↑e2 + (π,ρ)10↑e2
                         + (π,ρ)11↑e2 + (π,ρ)12↑e2
                         + (π,ρ)13↑e2 + (π,ρ)14↑e2 <= 20
 BwCapConstr_slink40#47: 5 (π,ρ)24↑e12 + 5 (π,ρ)25↑e12
                         + (π,ρ)26↑e12 <= 20
 BwCapConstr_slink41#48: (π,ρ)19↑e10 + (π,ρ)20↑e10
                         + (π,ρ)22↑e10 <= 20
 BwCapConstr_slink42#49: (π,ρ)21↑e10 + 5 (π,ρ)26↑e12
                         <= 20
 BwCapConstr_slink43#50: (π,ρ)21↑e10 + 5 (π,ρ)27↑e12
                         <= 20
Bounds
 0 <= vnp1 <= 1
 0 <= (π,ρ)0↑e1 <= 1
 0 <= (π,ρ)1↑e1 <= 1
 0 <= (π,ρ)2↑e1 <= 1
 0 <= (π,ρ)3↑e1 <= 1
 0 <= (π,ρ)4↑e1 <= 1
 0 <= (π,ρ)5↑e2 <= 1
 0 <= (π,ρ)6↑e2 <= 1
 0 <= (π,ρ)7↑e2 <= 1
 0 <= (π,ρ)8↑e2 <= 1
 0 <= (π,ρ)9↑e2 <= 1
 0 <= (π,ρ)10↑e2 <= 1
 0 <= (π,ρ)11↑e2 <= 1
 0 <= (π,ρ)12↑e2 <= 1
 0 <= (π,ρ)13↑e2 <= 1
 0 <= (π,ρ)14↑e2 <= 1
 0 <= (π,ρ)15↑e2 <= 1
 0 <= vnp2 <= 1
 0 <= (π,ρ)16↑e5 <= 1
 0 <= (π,ρ)17↑e5 <= 1
 0 <= vnp3 <= 1
 0 <= (π,ρ)18↑e10 <= 1
 0 <= (π,ρ)19↑e10 <= 1
 0 <= (π,ρ)20↑e10 <= 1
 0 <= (π,ρ)21↑e10 <= 1
 0 <= (π,ρ)22↑e10 <= 1
 0 <= vnp4 <= 1
 0 <= (π,ρ)23↑e11 <= 1
 0 <= (π,ρ)24↑e12 <= 1
 0 <= (π,ρ)25↑e12 <= 1
 0 <= (π,ρ)26↑e12 <= 1
 0 <= (π,ρ)27↑e12 <= 1
Binaries
 vnp1  (π,ρ)0↑e1  (π,ρ)1↑e1  (π,ρ)2↑e1 
 (π,ρ)3↑e1  (π,ρ)4↑e1  (π,ρ)5↑e2 
 (π,ρ)6↑e2  (π,ρ)7↑e2  (π,ρ)8↑e2 
 (π,ρ)9↑e2  (π,ρ)10↑e2  (π,ρ)11↑e2 
 (π,ρ)12↑e2  (π,ρ)13↑e2  (π,ρ)14↑e2 
 (π,ρ)15↑e2  vnp2  (π,ρ)16↑e5  (π,ρ)17↑e5 
 vnp3  (π,ρ)18↑e10  (π,ρ)19↑e10  (π,ρ)20↑e10 
 (π,ρ)21↑e10  (π,ρ)22↑e10  vnp4  (π,ρ)23↑e11 
 (π,ρ)24↑e12  (π,ρ)25↑e12  (π,ρ)26↑e12 
 (π,ρ)27↑e12 
End
